n_machines = 3;
n_resources = 4;
n_jobs = 40;
horizon = 173;
LB = 57;
n_jobs_per_resource = [10, 10, 10, 10];
duration = [8, 7, 9, 9, 4, 1, 1, 2, 5, 7, 9, 6, 4, 6, 5, 8, 2, 1, 8, 2, 5, 1, 1, 2, 1, 2, 8, 4, 2, 1, 7, 5, 3, 3, 4, 6, 2, 3, 8, 1]